100
100
100
100
99
97
96
96
95
95
95
94
93
93
92
92
91
89
85
84
78
76
76
76
76
75
73
73
70
70
69
67
67
66
63
62
60
60
60
58
56
55
53
53
52
51
50
50
50
49
49
48
47
47
46
45
45
42
41
41
39
37
36
36
35
34
34
30
30
29
29
28
28
26
26
23
22
22
22
22
21
21
21
19
18
17
17
15
14
14
11
10
8
7
7
6
5
2
2
1
1
1
